c nIsolatedPIs 0
c maxPI 32
p cnf 241 628
c gate 33 -7 23 0
-7 -33 0
23 -33 0
7 -23 33 0
c gate 34 6 -22 0
6 -34 0
-22 -34 0
-6 22 34 0
c gate 35 7 -23 0
7 -35 0
-23 -35 0
-7 23 35 0
c gate 36 -33 -35 0
-33 -36 0
-35 -36 0
33 35 36 0
c gate 37 -34 36 0
-34 -37 0
36 -37 0
34 -36 37 0
c gate 38 -2 18 0
-2 -38 0
18 -38 0
2 -18 38 0
c gate 39 -1 17 0
-1 -39 0
17 -39 0
1 -17 39 0
c gate 40 -38 -39 0
-38 -40 0
-39 -40 0
38 39 40 0
c gate 41 2 -18 0
2 -41 0
-18 -41 0
-2 18 41 0
c gate 42 3 -19 0
3 -42 0
-19 -42 0
-3 19 42 0
c gate 43 -41 -42 0
-41 -43 0
-42 -43 0
41 42 43 0
c gate 44 -40 43 0
-40 -44 0
43 -44 0
40 -43 44 0
c gate 45 -4 20 0
-4 -45 0
20 -45 0
4 -20 45 0
c gate 46 -3 19 0
-3 -46 0
19 -46 0
3 -19 46 0
c gate 47 -45 -46 0
-45 -47 0
-46 -47 0
45 46 47 0
c gate 48 -44 47 0
-44 -48 0
47 -48 0
44 -47 48 0
c gate 49 5 -21 0
5 -49 0
-21 -49 0
-5 21 49 0
c gate 50 4 -20 0
4 -50 0
-20 -50 0
-4 20 50 0
c gate 51 -49 -50 0
-49 -51 0
-50 -51 0
49 50 51 0
c gate 52 -48 51 0
-48 -52 0
51 -52 0
48 -51 52 0
c gate 53 -5 21 0
-5 -53 0
21 -53 0
5 -21 53 0
c gate 54 -6 -22 0
-6 -54 0
-22 -54 0
6 22 54 0
c gate 55 6 22 0
6 -55 0
22 -55 0
-6 -22 55 0
c gate 56 -54 -55 0
-54 -56 0
-55 -56 0
54 55 56 0
c gate 57 -53 -56 0
-53 -57 0
-56 -57 0
53 56 57 0
c gate 58 -52 57 0
-52 -58 0
57 -58 0
52 -57 58 0
c gate 59 37 -58 0
37 -59 0
-58 -59 0
-37 58 59 0
c gate 60 -33 -59 0
-33 -60 0
-59 -60 0
33 59 60 0
c gate 61 8 24 0
8 -61 0
24 -61 0
-8 -24 61 0
c gate 62 -8 -24 0
-8 -62 0
-24 -62 0
8 24 62 0
c gate 63 -61 -62 0
-61 -63 0
-62 -63 0
61 62 63 0
c gate 64 60 -63 0
60 -64 0
-63 -64 0
-60 63 64 0
c gate 65 -11 -27 0
-11 -65 0
-27 -65 0
11 27 65 0
c gate 66 11 27 0
11 -66 0
27 -66 0
-11 -27 66 0
c gate 67 -65 -66 0
-65 -67 0
-66 -67 0
65 66 67 0
c gate 68 -10 26 0
-10 -68 0
26 -68 0
10 -26 68 0
c gate 69 -9 25 0
-9 -69 0
25 -69 0
9 -25 69 0
c gate 70 8 -24 0
8 -70 0
-24 -70 0
-8 24 70 0
c gate 71 9 -25 0
9 -71 0
-25 -71 0
-9 25 71 0
c gate 72 -70 -71 0
-70 -72 0
-71 -72 0
70 71 72 0
c gate 73 -64 72 0
-64 -73 0
72 -73 0
64 -72 73 0
c gate 74 -69 -73 0
-69 -74 0
-73 -74 0
69 73 74 0
c gate 75 10 -26 0
10 -75 0
-26 -75 0
-10 26 75 0
c gate 76 -68 -75 0
-68 -76 0
-75 -76 0
68 75 76 0
c gate 77 -74 76 0
-74 -77 0
76 -77 0
74 -76 77 0
c gate 78 -68 -77 0
-68 -78 0
-77 -78 0
68 77 78 0
c gate 79 -67 -78 0
-67 -79 0
-78 -79 0
67 78 79 0
c gate 80 -14 -30 0
-14 -80 0
-30 -80 0
14 30 80 0
c gate 81 14 30 0
14 -81 0
30 -81 0
-14 -30 81 0
c gate 82 -80 -81 0
-80 -82 0
-81 -82 0
80 81 82 0
c gate 83 16 32 0
16 -83 0
32 -83 0
-16 -32 83 0
c gate 84 -16 -32 0
-16 -84 0
-32 -84 0
16 32 84 0
c gate 85 -83 -84 0
-83 -85 0
-84 -85 0
83 84 85 0
c gate 86 -82 -85 0
-82 -86 0
-85 -86 0
82 85 86 0
c gate 87 -15 -31 0
-15 -87 0
-31 -87 0
15 31 87 0
c gate 88 15 31 0
15 -88 0
31 -88 0
-15 -31 88 0
c gate 89 -87 -88 0
-87 -89 0
-88 -89 0
87 88 89 0
c gate 90 13 29 0
13 -90 0
29 -90 0
-13 -29 90 0
c gate 91 -13 -29 0
-13 -91 0
-29 -91 0
13 29 91 0
c gate 92 -90 -91 0
-90 -92 0
-91 -92 0
90 91 92 0
c gate 93 12 28 0
12 -93 0
28 -93 0
-12 -28 93 0
c gate 94 -12 -28 0
-12 -94 0
-28 -94 0
12 28 94 0
c gate 95 -93 -94 0
-93 -95 0
-94 -95 0
93 94 95 0
c gate 96 -92 -95 0
-92 -96 0
-95 -96 0
92 95 96 0
c gate 97 -89 96 0
-89 -97 0
96 -97 0
89 -96 97 0
c gate 98 86 97 0
86 -98 0
97 -98 0
-86 -97 98 0
c gate 99 79 98 0
79 -99 0
98 -99 0
-79 -98 99 0
c gate 100 67 78 0
67 -100 0
78 -100 0
-67 -78 100 0
c gate 101 -79 -100 0
-79 -101 0
-100 -101 0
79 100 101 0
c gate 102 -72 76 0
-72 -102 0
76 -102 0
72 -76 102 0
c gate 103 -75 -102 0
-75 -103 0
-102 -103 0
75 102 103 0
c gate 104 67 -103 0
67 -104 0
-103 -104 0
-67 103 104 0
c gate 105 -101 -104 0
-101 -105 0
-104 -105 0
101 104 105 0
c gate 106 72 -76 0
72 -106 0
-76 -106 0
-72 76 106 0
c gate 107 -102 -106 0
-102 -107 0
-106 -107 0
102 106 107 0
c gate 108 74 -76 0
74 -108 0
-76 -108 0
-74 76 108 0
c gate 109 -77 -108 0
-77 -109 0
-108 -109 0
77 108 109 0
c gate 110 -107 -109 0
-107 -110 0
-109 -110 0
107 109 110 0
c gate 111 107 109 0
107 -111 0
109 -111 0
-107 -109 111 0
c gate 112 -10 -26 0
-10 -112 0
-26 -112 0
10 26 112 0
c gate 113 4 20 0
4 -113 0
20 -113 0
-4 -20 113 0
c gate 114 2 18 0
2 -114 0
18 -114 0
-2 -18 114 0
c gate 115 1 17 0
1 -115 0
17 -115 0
-1 -17 115 0
c gate 116 3 19 0
3 -116 0
19 -116 0
-3 -19 116 0
c gate 117 -115 -116 0
-115 -117 0
-116 -117 0
115 116 117 0
c gate 118 -114 117 0
-114 -118 0
117 -118 0
114 -117 118 0
c gate 119 -45 -50 0
-45 -119 0
-50 -119 0
45 50 119 0
c gate 120 -3 -19 0
-3 -120 0
-19 -120 0
3 19 120 0
c gate 121 -119 -120 0
-119 -121 0
-120 -121 0
119 120 121 0
c gate 122 -118 121 0
-118 -122 0
121 -122 0
118 -121 122 0
c gate 123 -113 -122 0
-113 -123 0
-122 -123 0
113 122 123 0
c gate 124 -49 -53 0
-49 -124 0
-53 -124 0
49 53 124 0
c gate 125 -123 -124 0
-123 -125 0
-124 -125 0
123 124 125 0
c gate 126 -38 115 0
-38 -126 0
115 -126 0
38 -115 126 0
c gate 127 -2 126 0
-2 -127 0
126 -127 0
2 -126 127 0
c gate 128 -116 127 0
-116 -128 0
127 -128 0
116 -127 128 0
c gate 129 122 128 0
122 -129 0
128 -129 0
-122 -128 129 0
c gate 130 125 -129 0
125 -130 0
-129 -130 0
-125 129 130 0
c gate 131 5 21 0
5 -131 0
21 -131 0
-5 -21 131 0
c gate 132 56 -131 0
56 -132 0
-131 -132 0
-56 131 132 0
c gate 133 -130 132 0
-130 -133 0
132 -133 0
130 -132 133 0
c gate 134 -54 -133 0
-54 -134 0
-133 -134 0
54 133 134 0
c gate 135 -36 -134 0
-36 -135 0
-134 -135 0
36 134 135 0
c gate 136 63 135 0
63 -136 0
135 -136 0
-63 -135 136 0
c gate 137 -7 -23 0
-7 -137 0
-23 -137 0
7 23 137 0
c gate 138 -61 137 0
-61 -138 0
137 -138 0
61 -137 138 0
c gate 139 -9 -25 0
-9 -139 0
-25 -139 0
9 25 139 0
c gate 140 -62 -139 0
-62 -140 0
-139 -140 0
62 139 140 0
c gate 141 -138 140 0
-138 -141 0
140 -141 0
138 -140 141 0
c gate 142 -136 141 0
-136 -142 0
141 -142 0
136 -141 142 0
c gate 143 10 26 0
10 -143 0
26 -143 0
-10 -26 143 0
c gate 144 9 25 0
9 -144 0
25 -144 0
-9 -25 144 0
c gate 145 -143 -144 0
-143 -145 0
-144 -145 0
143 144 145 0
c gate 146 -142 145 0
-142 -146 0
145 -146 0
142 -145 146 0
c gate 147 -112 -146 0
-112 -147 0
-146 -147 0
112 146 147 0
c gate 148 -66 -147 0
-66 -148 0
-147 -148 0
66 147 148 0
c gate 149 -65 -148 0
-65 -149 0
-148 -149 0
65 148 149 0
c gate 150 95 149 0
95 -150 0
149 -150 0
-95 -149 150 0
c gate 151 -90 -93 0
-90 -151 0
-93 -151 0
90 93 151 0
c gate 152 82 -151 0
82 -152 0
-151 -152 0
-82 151 152 0
c gate 153 -82 151 0
-82 -153 0
151 -153 0
82 -151 153 0
c gate 154 -152 -153 0
-152 -154 0
-153 -154 0
152 153 154 0
c gate 155 -150 151 0
-150 -155 0
151 -155 0
150 -151 155 0
c gate 156 -91 -155 0
-91 -156 0
-155 -156 0
91 155 156 0
c gate 157 -82 156 0
-82 -157 0
156 -157 0
82 -156 157 0
c gate 158 82 -156 0
82 -158 0
-156 -158 0
-82 156 158 0
c gate 159 -157 -158 0
-157 -159 0
-158 -159 0
157 158 159 0
c gate 160 154 159 0
154 -160 0
159 -160 0
-154 -159 160 0
c gate 161 -154 -159 0
-154 -161 0
-159 -161 0
154 159 161 0
c gate 162 -160 -161 0
-160 -162 0
-161 -162 0
160 161 162 0
c gate 163 -150 162 0
-150 -163 0
162 -163 0
150 -162 163 0
c gate 164 -133 -135 0
-133 -164 0
-135 -164 0
133 135 164 0
c gate 165 114 115 0
114 -165 0
115 -165 0
-114 -115 165 0
c gate 166 164 165 0
164 -166 0
165 -166 0
-164 -165 166 0
c gate 167 -136 -166 0
-136 -167 0
-166 -167 0
136 166 167 0
c gate 168 163 167 0
163 -168 0
167 -168 0
-163 -167 168 0
c gate 169 -141 145 0
-141 -169 0
145 -169 0
141 -145 169 0
c gate 170 -65 -112 0
-65 -170 0
-112 -170 0
65 112 170 0
c gate 171 95 170 0
95 -171 0
170 -171 0
-95 -170 171 0
c gate 172 -169 171 0
-169 -172 0
171 -172 0
169 -171 172 0
c gate 173 -149 172 0
-149 -173 0
172 -173 0
149 -172 173 0
c gate 174 136 -173 0
136 -174 0
-173 -174 0
-136 173 174 0
c gate 175 163 -174 0
163 -175 0
-174 -175 0
-163 174 175 0
c gate 176 -80 -158 0
-80 -176 0
-158 -176 0
80 158 176 0
c gate 177 89 -176 0
89 -177 0
-176 -177 0
-89 176 177 0
c gate 178 -87 -177 0
-87 -178 0
-177 -178 0
87 177 178 0
c gate 179 85 -178 0
85 -179 0
-178 -179 0
-85 178 179 0
c gate 180 -85 178 0
-85 -180 0
178 -180 0
85 -178 180 0
c gate 181 -179 -180 0
-179 -181 0
-180 -181 0
179 180 181 0
c gate 182 -81 -152 0
-81 -182 0
-152 -182 0
81 152 182 0
c gate 183 89 -182 0
89 -183 0
-182 -183 0
-89 182 183 0
c gate 184 -88 -183 0
-88 -184 0
-183 -184 0
88 183 184 0
c gate 185 85 184 0
85 -185 0
184 -185 0
-85 -184 185 0
c gate 186 -85 -184 0
-85 -186 0
-184 -186 0
85 184 186 0
c gate 187 -185 -186 0
-185 -187 0
-186 -187 0
185 186 187 0
c gate 188 -181 187 0
-181 -188 0
187 -188 0
181 -187 188 0
c gate 189 181 -187 0
181 -189 0
-187 -189 0
-181 187 189 0
c gate 190 -89 182 0
-89 -190 0
182 -190 0
89 -182 190 0
c gate 191 -183 -190 0
-183 -191 0
-190 -191 0
183 190 191 0
c gate 192 -89 176 0
-89 -192 0
176 -192 0
89 -176 192 0
c gate 193 -177 -192 0
-177 -193 0
-192 -193 0
177 192 193 0
c gate 194 -191 -193 0
-191 -194 0
-193 -194 0
191 193 194 0
c gate 195 191 193 0
191 -195 0
193 -195 0
-191 -193 195 0
c gate 196 -92 150 0
-92 -196 0
150 -196 0
92 -150 196 0
c gate 197 -161 -196 0
-161 -197 0
-196 -197 0
161 196 197 0
c gate 198 -195 -197 0
-195 -198 0
-197 -198 0
195 197 198 0
c gate 199 -194 -198 0
-194 -199 0
-198 -199 0
194 198 199 0
c gate 200 -189 -199 0
-189 -200 0
-199 -200 0
189 199 200 0
c gate 201 -188 -200 0
-188 -201 0
-200 -201 0
188 200 201 0
c gate 202 -175 201 0
-175 -202 0
201 -202 0
175 -201 202 0
c gate 203 -168 -202 0
-168 -203 0
-202 -203 0
168 202 203 0
c gate 204 178 185 0
178 -204 0
185 -204 0
-178 -185 204 0
c gate 205 -58 -204 0
-58 -205 0
-204 -205 0
58 204 205 0
c gate 206 203 205 0
203 -206 0
205 -206 0
-203 -205 206 0
c gate 207 -36 58 0
-36 -207 0
58 -207 0
36 -58 207 0
c gate 208 -58 -83 0
-58 -208 0
-83 -208 0
58 83 208 0
c gate 209 -185 208 0
-185 -209 0
208 -209 0
185 -208 209 0
c gate 210 179 209 0
179 -210 0
209 -210 0
-179 -209 210 0
c gate 211 -207 -210 0
-207 -211 0
-210 -211 0
207 210 211 0
c gate 212 -206 211 0
-206 -212 0
211 -212 0
206 -211 212 0
c gate 213 -64 -212 0
-64 -213 0
-212 -213 0
64 212 213 0
c gate 214 37 63 0
37 -214 0
63 -214 0
-37 -63 214 0
c gate 215 60 214 0
60 -215 0
214 -215 0
-60 -214 215 0
c gate 216 -64 -215 0
-64 -216 0
-215 -216 0
64 215 216 0
c gate 217 -69 -71 0
-69 -217 0
-71 -217 0
69 71 217 0
c gate 218 -215 217 0
-215 -218 0
217 -218 0
215 -217 218 0
c gate 219 -216 -218 0
-216 -219 0
-218 -219 0
216 218 219 0
c gate 220 -213 -219 0
-213 -220 0
-219 -220 0
213 219 220 0
c gate 221 -111 -220 0
-111 -221 0
-220 -221 0
111 220 221 0
c gate 222 -110 -221 0
-110 -222 0
-221 -222 0
110 221 222 0
c gate 223 -105 222 0
-105 -223 0
222 -223 0
105 -222 223 0
c gate 224 -78 104 0
-78 -224 0
104 -224 0
78 -104 224 0
c gate 225 -79 -224 0
-79 -225 0
-224 -225 0
79 224 225 0
c gate 226 -223 225 0
-223 -226 0
225 -226 0
223 -225 226 0
c gate 227 -99 -226 0
-99 -227 0
-226 -227 0
99 226 227 0
c gate 228 64 -227 0
64 -228 0
-227 -228 0
-64 227 228 0
c gate 229 -220 227 0
-220 -229 0
227 -229 0
220 -227 229 0
c gate 230 -127 164 0
-127 -230 0
164 -230 0
127 -164 230 0
c gate 231 -173 -230 0
-173 -231 0
-230 -231 0
173 230 231 0
c gate 232 163 -231 0
163 -232 0
-231 -232 0
-163 231 232 0
c gate 233 201 -232 0
201 -233 0
-232 -233 0
-201 232 233 0
c gate 234 205 -233 0
205 -234 0
-233 -234 0
-205 233 234 0
c gate 235 211 -234 0
211 -235 0
-234 -235 0
-211 234 235 0
c gate 236 -227 235 0
-227 -236 0
235 -236 0
227 -235 236 0
c gate 237 -228 -236 0
-228 -237 0
-236 -237 0
228 236 237 0
c gate 238 -219 -237 0
-219 -238 0
-237 -238 0
219 237 238 0
c gate 239 -229 -238 0
-229 -239 0
-238 -239 0
229 238 239 0
c gate 240 -64 239 0
-64 -240 0
239 -240 0
64 -239 240 0
c gate 241 -228 -240 0
-228 -241 0
-240 -241 0
228 240 241 0
c PO
241 0
